GeneratedInstances/LBS14_17.param
$ LBS instance with n = 14, seed = 17
letting cards be [24,13,46,4,32,43,30,37,34,28,17,15,22,1]
